peakDumbCharging = 18500; 
Machine = anon_enum(16); 
machineSpeed = [3700,3700,3700,3700,3700,3700,3700,3700,3700,3700,3700,3700,3700,3700,3700,3700]; 
machineLoad = [3700,3700,3700,3700,3700,3700,3700,3700,3700,3700,3700,3700,3700,3700,3700,3700]; 
Car = anon_enum(22); 
demandCar = [4000,15760,12720,2920,8680,5240,4000,19880,6960,12560,6920,8520,8880,34840,17760,5720,19760,30200,5520,11280,20200,24280]; 
arrivalCar = [78,75,75,74,71,71,70,68,67,67,66,64,58,56,51,48,47,47,46,42,35,30]; 
departureCar = [80,81,80,77,76,75,76,75,71,72,69,68,62,71,57,52,55,61,49,46,50,40]; 
